
List of user-set options:

                                    Name   Value                used
                        file_print_level = 5                     yes
                   hessian_approximation = limited-memory        yes
                           linear_solver = mumps                 yes
                             output_file = IPOPT.out             yes
                             print_level = 0                     yes
                      print_user_options = yes                   yes
                                      sb = yes                   yes
This is Ipopt version 3.14.4, running with linear solver MUMPS 5.2.1.

Number of nonzeros in equality constraint Jacobian...:        0
Number of nonzeros in inequality constraint Jacobian.:      400
Number of nonzeros in Lagrangian Hessian.............:        0

Total number of variables............................:       10
                     variables with only lower bounds:        1
                variables with lower and upper bounds:        9
                     variables with only upper bounds:        0
Total number of equality constraints.................:        0
Total number of inequality constraints...............:       40
        inequality constraints with only lower bounds:        0
   inequality constraints with lower and upper bounds:       40
        inequality constraints with only upper bounds:        0

iter    objective    inf_pr   inf_du lg(mu)  ||d||  lg(rg) alpha_du alpha_pr  ls
   0  1.0000000e+00 5.65e+00 1.59e-12   0.0 0.00e+00    -  0.00e+00 0.00e+00   0
   1  1.4601112e+00 2.15e+00 6.18e+01   0.0 1.54e+00    -  6.01e-02 6.31e-01F  1
   2  1.8246695e+00 1.34e+00 7.93e+01  -0.3 1.22e+00    -  2.26e-01 6.33e-01h  1
   3  1.8586202e+00 1.26e+00 7.40e+01  -4.9 5.56e-01    -  6.06e-01 6.10e-02h  1
   4  2.4188825e+00 3.86e-01 8.00e-01  -1.0 5.66e-01    -  9.91e-01 9.90e-01h  1
   5  2.7384504e+00 6.21e-02 7.72e+00  -1.8 3.23e-01    -  9.97e-01 9.91e-01h  1
   6  2.7544230e+00 0.00e+00 3.91e-01  -2.5 1.81e-01    -  1.00e+00 1.00e+00h  1
   7  2.6919167e+00 9.87e-05 9.56e+04  -2.2 2.03e+00    -  4.40e-01 2.76e-01h  1
   8  2.6467370e+00 6.02e-02 1.18e+05  -8.4 2.45e+00    -  1.95e-01 4.14e-01h  1
   9  2.5900783e+00 4.94e-02 1.62e+05  -4.0 1.03e+00    -  1.31e-01 7.25e-01h  1
iter    objective    inf_pr   inf_du lg(mu)  ||d||  lg(rg) alpha_du alpha_pr  ls
  10  2.5844759e+00 4.24e-02 2.62e+05  -2.3 1.99e+00    -  5.10e-01 1.23e-01h  1
  11  2.5916584e+00 0.00e+00 2.98e+05  -2.0 3.98e-01    -  4.92e-01 1.00e+00f  1
  12  2.5280340e+00 0.00e+00 1.05e+00  -1.9 7.49e-01    -  1.00e+00 1.00e+00h  1
  13  2.4766264e+00 0.00e+00 1.01e+03  -1.9 5.57e-01    -  9.85e-01 1.00e+00h  1
  14  2.3893805e+00 0.00e+00 8.27e-01  -2.6 5.08e-01    -  1.00e+00 1.00e+00h  1
  15  2.1837464e+00 0.00e+00 1.44e+05  -1.7 3.35e-01    -  9.25e-01 1.00e+00f  1
  16  2.1015262e+00 0.00e+00 2.39e-01  -1.4 2.45e-01    -  1.00e+00 1.00e+00h  1
  17  2.0035866e+00 0.00e+00 4.57e+04  -2.2 1.07e-01    -  9.86e-01 1.00e+00h  1
  18  1.8973139e+00 2.66e-03 6.63e+04  -3.0 1.23e-01    -  1.00e+00 8.63e-01h  1
  19  1.7134506e+00 4.76e-02 4.24e+05  -1.8 1.35e+00    -  6.10e-01 3.08e-01f  1
iter    objective    inf_pr   inf_du lg(mu)  ||d||  lg(rg) alpha_du alpha_pr  ls
  20  1.6661113e+00 2.34e-02 5.58e+05  -3.4 6.54e-01    -  1.95e-01 5.71e-01h  1
  21  1.6321536e+00 1.86e-02 3.92e+05  -3.8 9.46e-01    -  3.25e-01 3.81e-01h  1
  22  1.5589201e+00 3.61e-02 2.52e+05  -3.4 1.27e+00    -  5.32e-01 9.93e-01h  1
  23  1.5908608e+00 2.85e-02 3.28e+04  -2.6 4.20e-01    -  4.51e-01 1.00e+00h  1
  24  1.5805887e+00 2.71e-03 1.20e-02  -3.1 1.99e-01    -  1.00e+00 1.00e+00h  1
  25  1.5736877e+00 6.40e-03 2.61e+02  -3.6 2.68e-01    -  1.00e+00 9.96e-01h  1
  26  1.5752061e+00 4.90e-04 5.15e-03  -3.7 1.57e-01    -  1.00e+00 1.00e+00h  1
  27  1.5744532e+00 7.85e-05 1.86e-03  -4.5 1.86e-02    -  1.00e+00 1.00e+00h  1
  28  1.5743169e+00 1.18e-05 7.73e+01  -5.5 1.22e-02    -  1.00e+00 9.71e-01h  1
  29  1.5742989e+00 0.00e+00 1.26e+00  -6.6 1.91e-03    -  1.00e+00 9.97e-01h  1
iter    objective    inf_pr   inf_du lg(mu)  ||d||  lg(rg) alpha_du alpha_pr  ls
  30  1.5742973e+00 3.20e-07 6.28e-05  -8.5 8.49e-04    -  1.00e+00 1.00e+00h  1
  31  1.5742974e+00 4.31e-08 6.73e-06  -9.8 4.19e-04    -  1.00e+00 1.00e+00h  1
  32  1.5742974e+00 3.65e-10 4.06e-06 -11.0 1.01e-04    -  1.00e+00 1.00e+00h  1
  33  1.5742974e+00 5.23e-10 5.55e-07 -11.0 1.66e-04    -  1.00e+00 1.00e+00h  1
  34  1.5742974e+00 1.87e-11 1.77e-06 -11.0 2.15e-05    -  1.00e+00 1.00e+00h  1
  35  1.5742974e+00 0.00e+00 7.73e-08 -11.0 1.62e-05    -  1.00e+00 1.00e+00h  1
  36  1.5742974e+00 0.00e+00 1.73e-08 -11.0 9.44e-07    -  1.00e+00 1.00e+00h  1
  37  1.5742974e+00 0.00e+00 2.99e-09 -11.0 1.51e-07    -  1.00e+00 1.00e+00h  1

Number of Iterations....: 37

                                   (scaled)                 (unscaled)
Objective...............:   1.5742973794660231e+00    1.5742973794660231e+00
Dual infeasibility......:   2.9919456322084841e-09    2.9919456322084841e-09
Constraint violation....:   0.0000000000000000e+00    0.0000000000000000e+00
Variable bound violation:   0.0000000000000000e+00    0.0000000000000000e+00
Complementarity.........:   1.0034999762030680e-11    1.0034999762030680e-11
Overall NLP error.......:   2.9919456322084841e-09    2.9919456322084841e-09


Number of objective function evaluations             = 39
Number of objective gradient evaluations             = 38
Number of equality constraint evaluations            = 0
Number of inequality constraint evaluations          = 39
Number of equality constraint Jacobian evaluations   = 0
Number of inequality constraint Jacobian evaluations = 38
Number of Lagrangian Hessian evaluations             = 0
Total seconds in IPOPT                               = 0.284

EXIT: Optimal Solution Found.
